Optimal - objective value 41.00000000
      6 x_1_11                  1                       0
     31 x_2_17                  1                       0
     54 x_3_0                   1                       0
    101 x_4_22                  1                       0
    127 x_5_19                  1                       0
    147 x_6_5                   1                       0
    192 x_7_31                  1                       0
    212 x_8_25                  1                       0
    259 x_9_36                  1                       0
    284 x_10_41                 1                      41
